p cnf 323 1645
-246 -247 0
-1 -2 0
-3 -4 0
-3 -5 0
-4 -5 0
-246 1 2 0
-247 2 3 4 5 0
246 -1 0
246 -2 0
247 -3 0
247 -4 0
247 -5 0
-1 36 0
-1 6 0
-2 37 0
-2 7 0
-3 38 0
-3 8 0
-4 39 0
-4 9 0
-5 40 0
-5 10 0
-248 -249 0
-6 -7 0
-8 -9 0
-8 -10 0
-9 -10 0
-248 6 7 0
-249 7 8 9 10 0
248 -6 0
248 -7 0
249 -8 0
249 -9 0
249 -10 0
-6 1 11 0
-6 1 41 0
-6 11 41 0
-7 2 12 0
-7 2 42 0
-7 12 42 0
-8 3 13 0
-8 3 43 0
-8 13 43 0
-9 4 14 0
-9 4 44 0
-9 14 44 0
-10 5 15 0
-10 5 45 0
-10 15 45 0
-6 -1 -11 -41 0
-7 -2 -12 -42 0
-8 -3 -13 -43 0
-9 -4 -14 -44 0
-10 -5 -15 -45 0
-250 -251 0
-11 -12 0
-13 -14 0
-13 -15 0
-14 -15 0
-250 11 12 0
-251 12 13 14 15 0
250 -11 0
250 -12 0
251 -13 0
251 -14 0
251 -15 0
-11 6 16 0
-11 6 46 0
-11 16 46 0
-12 7 17 0
-12 7 47 0
-12 17 47 0
-13 8 18 0
-13 8 48 0
-13 18 48 0
-14 9 19 0
-14 9 49 0
-14 19 49 0
-15 10 20 0
-15 10 50 0
-15 20 50 0
-11 -6 -16 -46 0
-12 -7 -17 -47 0
-13 -8 -18 -48 0
-14 -9 -19 -49 0
-15 -10 -20 -50 0
-252 -253 0
-16 -17 0
-18 -19 0
-18 -20 0
-19 -20 0
-252 16 17 0
-253 17 18 19 20 0
252 -16 0
252 -17 0
253 -18 0
253 -19 0
253 -20 0
-16 11 21 0
-16 11 51 0
-16 21 51 0
-17 12 22 0
-17 12 52 0
-17 22 52 0
-18 13 23 0
-18 13 53 0
-18 23 53 0
-19 14 24 0
-19 14 54 0
-19 24 54 0
-20 15 25 0
-20 15 55 0
-20 25 55 0
-16 -11 -21 -51 0
-17 -12 -22 -52 0
-18 -13 -23 -53 0
-19 -14 -24 -54 0
-20 -15 -25 -55 0
-22 0
-23 0
-24 0
-25 0
21 0
16 26 56 0
-16 -26 0
-16 -56 0
-26 -56 0
-254 -255 0
-26 -27 0
-28 -29 0
-28 -30 0
-29 -30 0
-254 26 27 0
-255 27 28 29 30 0
254 -26 0
254 -27 0
255 -28 0
255 -29 0
255 -30 0
-26 21 31 0
-26 21 61 0
-26 31 61 0
-27 22 32 0
-27 22 62 0
-27 32 62 0
-28 23 33 0
-28 23 63 0
-28 33 63 0
-29 24 34 0
-29 24 64 0
-29 34 64 0
-30 25 35 0
-30 25 65 0
-30 35 65 0
-26 -21 -31 -61 0
-27 -22 -32 -62 0
-28 -23 -33 -63 0
-29 -24 -34 -64 0
-30 -25 -35 -65 0
-256 -257 0
-31 -32 0
-33 -34 0
-33 -35 0
-34 -35 0
-256 31 32 0
-257 32 33 34 35 0
256 -31 0
256 -32 0
257 -33 0
257 -34 0
257 -35 0
-31 66 0
-31 26 0
-32 67 0
-32 27 0
-33 68 0
-33 28 0
-34 69 0
-34 29 0
-35 70 0
-35 30 0
-258 -259 0
-36 -37 0
-38 -39 0
-38 -40 0
-39 -40 0
-258 36 37 0
-259 37 38 39 40 0
258 -36 0
258 -37 0
259 -38 0
259 -39 0
259 -40 0
-36 71 41 0
-36 71 1 0
-36 41 1 0
-37 72 42 0
-37 72 2 0
-37 42 2 0
-38 73 43 0
-38 73 3 0
-38 43 3 0
-39 74 44 0
-39 74 4 0
-39 44 4 0
-40 75 45 0
-40 75 5 0
-40 45 5 0
-36 -71 -41 -1 0
-37 -72 -42 -2 0
-38 -73 -43 -3 0
-39 -74 -44 -4 0
-40 -75 -45 -5 0
-41 0
-43 0
-44 0
-45 0
42 0
77 47 7 37 0
-77 -47 0
-77 -7 0
-77 -37 0
-47 -7 0
-47 -37 0
-7 -37 0
-260 -261 0
-46 -47 0
-48 -49 0
-48 -50 0
-49 -50 0
-260 46 47 0
-261 47 48 49 50 0
260 -46 0
260 -47 0
261 -48 0
261 -49 0
261 -50 0
-46 81 51 11 0
-46 81 51 41 0
-46 81 11 41 0
-46 51 11 41 0
-47 82 52 12 0
-47 82 52 42 0
-47 82 12 42 0
-47 52 12 42 0
-48 83 53 13 0
-48 83 53 43 0
-48 83 13 43 0
-48 53 13 43 0
-49 84 54 14 0
-49 84 54 44 0
-49 84 14 44 0
-49 54 14 44 0
-50 85 55 15 0
-50 85 55 45 0
-50 85 15 45 0
-50 55 15 45 0
-46 -81 -51 -11 0
-46 -81 -51 -41 0
-46 -81 -11 -41 0
-46 -51 -11 -41 0
-47 -82 -52 -12 0
-47 -82 -52 -42 0
-47 -82 -12 -42 0
-47 -52 -12 -42 0
-48 -83 -53 -13 0
-48 -83 -53 -43 0
-48 -83 -13 -43 0
-48 -53 -13 -43 0
-49 -84 -54 -14 0
-49 -84 -54 -44 0
-49 -84 -14 -44 0
-49 -54 -14 -44 0
-50 -85 -55 -15 0
-50 -85 -55 -45 0
-50 -85 -15 -45 0
-50 -55 -15 -45 0
-262 -263 0
-51 -52 0
-53 -54 0
-53 -55 0
-54 -55 0
-262 51 52 0
-263 52 53 54 55 0
262 -51 0
262 -52 0
263 -53 0
263 -54 0
263 -55 0
-51 86 56 16 0
-51 86 56 46 0
-51 86 16 46 0
-51 56 16 46 0
-52 87 57 17 0
-52 87 57 47 0
-52 87 17 47 0
-52 57 17 47 0
-53 88 58 18 0
-53 88 58 48 0
-53 88 18 48 0
-53 58 18 48 0
-54 89 59 19 0
-54 89 59 49 0
-54 89 19 49 0
-54 59 19 49 0
-55 90 60 20 0
-55 90 60 50 0
-55 90 20 50 0
-55 60 20 50 0
-51 -86 -56 -16 0
-51 -86 -56 -46 0
-51 -86 -16 -46 0
-51 -56 -16 -46 0
-52 -87 -57 -17 0
-52 -87 -57 -47 0
-52 -87 -17 -47 0
-52 -57 -17 -47 0
-53 -88 -58 -18 0
-53 -88 -58 -48 0
-53 -88 -18 -48 0
-53 -58 -18 -48 0
-54 -89 -59 -19 0
-54 -89 -59 -49 0
-54 -89 -19 -49 0
-54 -59 -19 -49 0
-55 -90 -60 -20 0
-55 -90 -60 -50 0
-55 -90 -20 -50 0
-55 -60 -20 -50 0
-264 -265 0
-56 -57 0
-58 -59 0
-58 -60 0
-59 -60 0
-264 56 57 0
-265 57 58 59 60 0
264 -56 0
264 -57 0
265 -58 0
265 -59 0
265 -60 0
-56 91 61 21 0
-56 91 61 51 0
-56 91 21 51 0
-56 61 21 51 0
-57 92 62 22 0
-57 92 62 52 0
-57 92 22 52 0
-57 62 22 52 0
-58 93 63 23 0
-58 93 63 53 0
-58 93 23 53 0
-58 63 23 53 0
-59 94 64 24 0
-59 94 64 54 0
-59 94 24 54 0
-59 64 24 54 0
-60 95 65 25 0
-60 95 65 55 0
-60 95 25 55 0
-60 65 25 55 0
-56 -91 -61 -21 0
-56 -91 -61 -51 0
-56 -91 -21 -51 0
-56 -61 -21 -51 0
-57 -92 -62 -22 0
-57 -92 -62 -52 0
-57 -92 -22 -52 0
-57 -62 -22 -52 0
-58 -93 -63 -23 0
-58 -93 -63 -53 0
-58 -93 -23 -53 0
-58 -63 -23 -53 0
-59 -94 -64 -24 0
-59 -94 -64 -54 0
-59 -94 -24 -54 0
-59 -64 -24 -54 0
-60 -95 -65 -25 0
-60 -95 -65 -55 0
-60 -95 -25 -55 0
-60 -65 -25 -55 0
-61 0
-62 0
-64 0
-65 0
63 0
98 68 28 58 0
-98 -68 0
-98 -28 0
-98 -58 0
-68 -28 0
-68 -58 0
-28 -58 0
-266 -267 0
-66 -67 0
-68 -69 0
-68 -70 0
-69 -70 0
-266 66 67 0
-267 67 68 69 70 0
266 -66 0
266 -67 0
267 -68 0
267 -69 0
267 -70 0
-66 101 61 0
-66 101 31 0
-66 61 31 0
-67 102 62 0
-67 102 32 0
-67 62 32 0
-68 103 63 0
-68 103 33 0
-68 63 33 0
-69 104 64 0
-69 104 34 0
-69 64 34 0
-70 105 65 0
-70 105 35 0
-70 65 35 0
-66 -101 -61 -31 0
-67 -102 -62 -32 0
-68 -103 -63 -33 0
-69 -104 -64 -34 0
-70 -105 -65 -35 0
-268 -269 0
-71 -72 0
-73 -74 0
-73 -75 0
-74 -75 0
-268 71 72 0
-269 72 73 74 75 0
268 -71 0
268 -72 0
269 -73 0
269 -74 0
269 -75 0
-71 106 76 0
-71 106 36 0
-71 76 36 0
-72 107 77 0
-72 107 37 0
-72 77 37 0
-73 108 78 0
-73 108 38 0
-73 78 38 0
-74 109 79 0
-74 109 39 0
-74 79 39 0
-75 110 80 0
-75 110 40 0
-75 80 40 0
-71 -106 -76 -36 0
-72 -107 -77 -37 0
-73 -108 -78 -38 0
-74 -109 -79 -39 0
-75 -110 -80 -40 0
-76 0
-77 0
-79 0
-80 0
78 0
113 83 43 73 0
-113 -83 0
-113 -43 0
-113 -73 0
-83 -43 0
-83 -73 0
-43 -73 0
-270 -271 0
-81 -82 0
-83 -84 0
-83 -85 0
-84 -85 0
-270 81 82 0
-271 82 83 84 85 0
270 -81 0
270 -82 0
271 -83 0
271 -84 0
271 -85 0
-81 116 86 46 0
-81 116 86 76 0
-81 116 46 76 0
-81 86 46 76 0
-82 117 87 47 0
-82 117 87 77 0
-82 117 47 77 0
-82 87 47 77 0
-83 118 88 48 0
-83 118 88 78 0
-83 118 48 78 0
-83 88 48 78 0
-84 119 89 49 0
-84 119 89 79 0
-84 119 49 79 0
-84 89 49 79 0
-85 120 90 50 0
-85 120 90 80 0
-85 120 50 80 0
-85 90 50 80 0
-81 -116 -86 -46 0
-81 -116 -86 -76 0
-81 -116 -46 -76 0
-81 -86 -46 -76 0
-82 -117 -87 -47 0
-82 -117 -87 -77 0
-82 -117 -47 -77 0
-82 -87 -47 -77 0
-83 -118 -88 -48 0
-83 -118 -88 -78 0
-83 -118 -48 -78 0
-83 -88 -48 -78 0
-84 -119 -89 -49 0
-84 -119 -89 -79 0
-84 -119 -49 -79 0
-84 -89 -49 -79 0
-85 -120 -90 -50 0
-85 -120 -90 -80 0
-85 -120 -50 -80 0
-85 -90 -50 -80 0
-272 -273 0
-86 -87 0
-88 -89 0
-88 -90 0
-89 -90 0
-272 86 87 0
-273 87 88 89 90 0
272 -86 0
272 -87 0
273 -88 0
273 -89 0
273 -90 0
-86 121 91 51 0
-86 121 91 81 0
-86 121 51 81 0
-86 91 51 81 0
-87 122 92 52 0
-87 122 92 82 0
-87 122 52 82 0
-87 92 52 82 0
-88 123 93 53 0
-88 123 93 83 0
-88 123 53 83 0
-88 93 53 83 0
-89 124 94 54 0
-89 124 94 84 0
-89 124 54 84 0
-89 94 54 84 0
-90 125 95 55 0
-90 125 95 85 0
-90 125 55 85 0
-90 95 55 85 0
-86 -121 -91 -51 0
-86 -121 -91 -81 0
-86 -121 -51 -81 0
-86 -91 -51 -81 0
-87 -122 -92 -52 0
-87 -122 -92 -82 0
-87 -122 -52 -82 0
-87 -92 -52 -82 0
-88 -123 -93 -53 0
-88 -123 -93 -83 0
-88 -123 -53 -83 0
-88 -93 -53 -83 0
-89 -124 -94 -54 0
-89 -124 -94 -84 0
-89 -124 -54 -84 0
-89 -94 -54 -84 0
-90 -125 -95 -55 0
-90 -125 -95 -85 0
-90 -125 -55 -85 0
-90 -95 -55 -85 0
-274 -275 0
-91 -92 0
-93 -94 0
-93 -95 0
-94 -95 0
-274 91 92 0
-275 92 93 94 95 0
274 -91 0
274 -92 0
275 -93 0
275 -94 0
275 -95 0
-91 126 96 56 0
-91 126 96 86 0
-91 126 56 86 0
-91 96 56 86 0
-92 127 97 57 0
-92 127 97 87 0
-92 127 57 87 0
-92 97 57 87 0
-93 128 98 58 0
-93 128 98 88 0
-93 128 58 88 0
-93 98 58 88 0
-94 129 99 59 0
-94 129 99 89 0
-94 129 59 89 0
-94 99 59 89 0
-95 130 100 60 0
-95 130 100 90 0
-95 130 60 90 0
-95 100 60 90 0
-91 -126 -96 -56 0
-91 -126 -96 -86 0
-91 -126 -56 -86 0
-91 -96 -56 -86 0
-92 -127 -97 -57 0
-92 -127 -97 -87 0
-92 -127 -57 -87 0
-92 -97 -57 -87 0
-93 -128 -98 -58 0
-93 -128 -98 -88 0
-93 -128 -58 -88 0
-93 -98 -58 -88 0
-94 -129 -99 -59 0
-94 -129 -99 -89 0
-94 -129 -59 -89 0
-94 -99 -59 -89 0
-95 -130 -100 -60 0
-95 -130 -100 -90 0
-95 -130 -60 -90 0
-95 -100 -60 -90 0
-96 0
-98 0
-99 0
-100 0
97 0
132 102 62 92 0
-132 -102 0
-132 -62 0
-132 -92 0
-102 -62 0
-102 -92 0
-62 -92 0
-276 -277 0
-101 -102 0
-103 -104 0
-103 -105 0
-104 -105 0
-276 101 102 0
-277 102 103 104 105 0
276 -101 0
276 -102 0
277 -103 0
277 -104 0
277 -105 0
-101 136 96 0
-101 136 66 0
-101 96 66 0
-102 137 97 0
-102 137 67 0
-102 97 67 0
-103 138 98 0
-103 138 68 0
-103 98 68 0
-104 139 99 0
-104 139 69 0
-104 99 69 0
-105 140 100 0
-105 140 70 0
-105 100 70 0
-101 -136 -96 -66 0
-102 -137 -97 -67 0
-103 -138 -98 -68 0
-104 -139 -99 -69 0
-105 -140 -100 -70 0
-278 -279 0
-106 -107 0
-108 -109 0
-108 -110 0
-109 -110 0
-278 106 107 0
-279 107 108 109 110 0
278 -106 0
278 -107 0
279 -108 0
279 -109 0
279 -110 0
-106 141 111 0
-106 141 71 0
-106 111 71 0
-107 142 112 0
-107 142 72 0
-107 112 72 0
-108 143 113 0
-108 143 73 0
-108 113 73 0
-109 144 114 0
-109 144 74 0
-109 114 74 0
-110 145 115 0
-110 145 75 0
-110 115 75 0
-106 -141 -111 -71 0
-107 -142 -112 -72 0
-108 -143 -113 -73 0
-109 -144 -114 -74 0
-110 -145 -115 -75 0
-112 0
-113 0
-114 0
-115 0
111 0
146 116 76 106 0
-146 -116 0
-146 -76 0
-146 -106 0
-116 -76 0
-116 -106 0
-76 -106 0
-116 0
-117 0
-118 0
-120 0
119 0
154 124 84 114 0
-154 -124 0
-154 -84 0
-154 -114 0
-124 -84 0
-124 -114 0
-84 -114 0
-280 -281 0
-121 -122 0
-123 -124 0
-123 -125 0
-124 -125 0
-280 121 122 0
-281 122 123 124 125 0
280 -121 0
280 -122 0
281 -123 0
281 -124 0
281 -125 0
-121 156 126 86 0
-121 156 126 116 0
-121 156 86 116 0
-121 126 86 116 0
-122 157 127 87 0
-122 157 127 117 0
-122 157 87 117 0
-122 127 87 117 0
-123 158 128 88 0
-123 158 128 118 0
-123 158 88 118 0
-123 128 88 118 0
-124 159 129 89 0
-124 159 129 119 0
-124 159 89 119 0
-124 129 89 119 0
-125 160 130 90 0
-125 160 130 120 0
-125 160 90 120 0
-125 130 90 120 0
-121 -156 -126 -86 0
-121 -156 -126 -116 0
-121 -156 -86 -116 0
-121 -126 -86 -116 0
-122 -157 -127 -87 0
-122 -157 -127 -117 0
-122 -157 -87 -117 0
-122 -127 -87 -117 0
-123 -158 -128 -88 0
-123 -158 -128 -118 0
-123 -158 -88 -118 0
-123 -128 -88 -118 0
-124 -159 -129 -89 0
-124 -159 -129 -119 0
-124 -159 -89 -119 0
-124 -129 -89 -119 0
-125 -160 -130 -90 0
-125 -160 -130 -120 0
-125 -160 -90 -120 0
-125 -130 -90 -120 0
-282 -283 0
-126 -127 0
-128 -129 0
-128 -130 0
-129 -130 0
-282 126 127 0
-283 127 128 129 130 0
282 -126 0
282 -127 0
283 -128 0
283 -129 0
283 -130 0
-126 161 131 91 0
-126 161 131 121 0
-126 161 91 121 0
-126 131 91 121 0
-127 162 132 92 0
-127 162 132 122 0
-127 162 92 122 0
-127 132 92 122 0
-128 163 133 93 0
-128 163 133 123 0
-128 163 93 123 0
-128 133 93 123 0
-129 164 134 94 0
-129 164 134 124 0
-129 164 94 124 0
-129 134 94 124 0
-130 165 135 95 0
-130 165 135 125 0
-130 165 95 125 0
-130 135 95 125 0
-126 -161 -131 -91 0
-126 -161 -131 -121 0
-126 -161 -91 -121 0
-126 -131 -91 -121 0
-127 -162 -132 -92 0
-127 -162 -132 -122 0
-127 -162 -92 -122 0
-127 -132 -92 -122 0
-128 -163 -133 -93 0
-128 -163 -133 -123 0
-128 -163 -93 -123 0
-128 -133 -93 -123 0
-129 -164 -134 -94 0
-129 -164 -134 -124 0
-129 -164 -94 -124 0
-129 -134 -94 -124 0
-130 -165 -135 -95 0
-130 -165 -135 -125 0
-130 -165 -95 -125 0
-130 -135 -95 -125 0
-284 -285 0
-131 -132 0
-133 -134 0
-133 -135 0
-134 -135 0
-284 131 132 0
-285 132 133 134 135 0
284 -131 0
284 -132 0
285 -133 0
285 -134 0
285 -135 0
-131 166 136 96 0
-131 166 136 126 0
-131 166 96 126 0
-131 136 96 126 0
-132 167 137 97 0
-132 167 137 127 0
-132 167 97 127 0
-132 137 97 127 0
-133 168 138 98 0
-133 168 138 128 0
-133 168 98 128 0
-133 138 98 128 0
-134 169 139 99 0
-134 169 139 129 0
-134 169 99 129 0
-134 139 99 129 0
-135 170 140 100 0
-135 170 140 130 0
-135 170 100 130 0
-135 140 100 130 0
-131 -166 -136 -96 0
-131 -166 -136 -126 0
-131 -166 -96 -126 0
-131 -136 -96 -126 0
-132 -167 -137 -97 0
-132 -167 -137 -127 0
-132 -167 -97 -127 0
-132 -137 -97 -127 0
-133 -168 -138 -98 0
-133 -168 -138 -128 0
-133 -168 -98 -128 0
-133 -138 -98 -128 0
-134 -169 -139 -99 0
-134 -169 -139 -129 0
-134 -169 -99 -129 0
-134 -139 -99 -129 0
-135 -170 -140 -100 0
-135 -170 -140 -130 0
-135 -170 -100 -130 0
-135 -140 -100 -130 0
-286 -287 0
-136 -137 0
-138 -139 0
-138 -140 0
-139 -140 0
-286 136 137 0
-287 137 138 139 140 0
286 -136 0
286 -137 0
287 -138 0
287 -139 0
287 -140 0
-136 171 131 0
-136 171 101 0
-136 131 101 0
-137 172 132 0
-137 172 102 0
-137 132 102 0
-138 173 133 0
-138 173 103 0
-138 133 103 0
-139 174 134 0
-139 174 104 0
-139 134 104 0
-140 175 135 0
-140 175 105 0
-140 135 105 0
-136 -171 -131 -101 0
-137 -172 -132 -102 0
-138 -173 -133 -103 0
-139 -174 -134 -104 0
-140 -175 -135 -105 0
-288 -289 0
-141 -142 0
-143 -144 0
-143 -145 0
-144 -145 0
-288 141 142 0
-289 142 143 144 145 0
288 -141 0
288 -142 0
289 -143 0
289 -144 0
289 -145 0
-141 176 146 0
-141 176 106 0
-141 146 106 0
-142 177 147 0
-142 177 107 0
-142 147 107 0
-143 178 148 0
-143 178 108 0
-143 148 108 0
-144 179 149 0
-144 179 109 0
-144 149 109 0
-145 180 150 0
-145 180 110 0
-145 150 110 0
-141 -176 -146 -106 0
-142 -177 -147 -107 0
-143 -178 -148 -108 0
-144 -179 -149 -109 0
-145 -180 -150 -110 0
-146 0
-147 0
-148 0
-150 0
149 0
184 154 114 144 0
-184 -154 0
-184 -114 0
-184 -144 0
-154 -114 0
-154 -144 0
-114 -144 0
-151 0
-152 0
-153 0
-154 0
155 0
190 160 120 150 0
-190 -160 0
-190 -120 0
-190 -150 0
-160 -120 0
-160 -150 0
-120 -150 0
-290 -291 0
-156 -157 0
-158 -159 0
-158 -160 0
-159 -160 0
-290 156 157 0
-291 157 158 159 160 0
290 -156 0
290 -157 0
291 -158 0
291 -159 0
291 -160 0
-156 191 161 121 0
-156 191 161 151 0
-156 191 121 151 0
-156 161 121 151 0
-157 192 162 122 0
-157 192 162 152 0
-157 192 122 152 0
-157 162 122 152 0
-158 193 163 123 0
-158 193 163 153 0
-158 193 123 153 0
-158 163 123 153 0
-159 194 164 124 0
-159 194 164 154 0
-159 194 124 154 0
-159 164 124 154 0
-160 195 165 125 0
-160 195 165 155 0
-160 195 125 155 0
-160 165 125 155 0
-156 -191 -161 -121 0
-156 -191 -161 -151 0
-156 -191 -121 -151 0
-156 -161 -121 -151 0
-157 -192 -162 -122 0
-157 -192 -162 -152 0
-157 -192 -122 -152 0
-157 -162 -122 -152 0
-158 -193 -163 -123 0
-158 -193 -163 -153 0
-158 -193 -123 -153 0
-158 -163 -123 -153 0
-159 -194 -164 -124 0
-159 -194 -164 -154 0
-159 -194 -124 -154 0
-159 -164 -124 -154 0
-160 -195 -165 -125 0
-160 -195 -165 -155 0
-160 -195 -125 -155 0
-160 -165 -125 -155 0
-161 0
-162 0
-163 0
-164 0
165 0
200 170 130 160 0
-200 -170 0
-200 -130 0
-200 -160 0
-170 -130 0
-170 -160 0
-130 -160 0
-292 -293 0
-166 -167 0
-168 -169 0
-168 -170 0
-169 -170 0
-292 166 167 0
-293 167 168 169 170 0
292 -166 0
292 -167 0
293 -168 0
293 -169 0
293 -170 0
-166 201 171 131 0
-166 201 171 161 0
-166 201 131 161 0
-166 171 131 161 0
-167 202 172 132 0
-167 202 172 162 0
-167 202 132 162 0
-167 172 132 162 0
-168 203 173 133 0
-168 203 173 163 0
-168 203 133 163 0
-168 173 133 163 0
-169 204 174 134 0
-169 204 174 164 0
-169 204 134 164 0
-169 174 134 164 0
-170 205 175 135 0
-170 205 175 165 0
-170 205 135 165 0
-170 175 135 165 0
-166 -201 -171 -131 0
-166 -201 -171 -161 0
-166 -201 -131 -161 0
-166 -171 -131 -161 0
-167 -202 -172 -132 0
-167 -202 -172 -162 0
-167 -202 -132 -162 0
-167 -172 -132 -162 0
-168 -203 -173 -133 0
-168 -203 -173 -163 0
-168 -203 -133 -163 0
-168 -173 -133 -163 0
-169 -204 -174 -134 0
-169 -204 -174 -164 0
-169 -204 -134 -164 0
-169 -174 -134 -164 0
-170 -205 -175 -135 0
-170 -205 -175 -165 0
-170 -205 -135 -165 0
-170 -175 -135 -165 0
-294 -295 0
-171 -172 0
-173 -174 0
-173 -175 0
-174 -175 0
-294 171 172 0
-295 172 173 174 175 0
294 -171 0
294 -172 0
295 -173 0
295 -174 0
295 -175 0
-171 206 166 0
-171 206 136 0
-171 166 136 0
-172 207 167 0
-172 207 137 0
-172 167 137 0
-173 208 168 0
-173 208 138 0
-173 168 138 0
-174 209 169 0
-174 209 139 0
-174 169 139 0
-175 210 170 0
-175 210 140 0
-175 170 140 0
-171 -206 -166 -136 0
-172 -207 -167 -137 0
-173 -208 -168 -138 0
-174 -209 -169 -139 0
-175 -210 -170 -140 0
-296 -297 0
-176 -177 0
-178 -179 0
-178 -180 0
-179 -180 0
-296 176 177 0
-297 177 178 179 180 0
296 -176 0
296 -177 0
297 -178 0
297 -179 0
297 -180 0
-176 211 181 0
-176 211 141 0
-176 181 141 0
-177 212 182 0
-177 212 142 0
-177 182 142 0
-178 213 183 0
-178 213 143 0
-178 183 143 0
-179 214 184 0
-179 214 144 0
-179 184 144 0
-180 215 185 0
-180 215 145 0
-180 185 145 0
-176 -211 -181 -141 0
-177 -212 -182 -142 0
-178 -213 -183 -143 0
-179 -214 -184 -144 0
-180 -215 -185 -145 0
-298 -299 0
-181 -182 0
-183 -184 0
-183 -185 0
-184 -185 0
-298 181 182 0
-299 182 183 184 185 0
298 -181 0
298 -182 0
299 -183 0
299 -184 0
299 -185 0
-181 216 186 146 0
-181 216 186 176 0
-181 216 146 176 0
-181 186 146 176 0
-182 217 187 147 0
-182 217 187 177 0
-182 217 147 177 0
-182 187 147 177 0
-183 218 188 148 0
-183 218 188 178 0
-183 218 148 178 0
-183 188 148 178 0
-184 219 189 149 0
-184 219 189 179 0
-184 219 149 179 0
-184 189 149 179 0
-185 220 190 150 0
-185 220 190 180 0
-185 220 150 180 0
-185 190 150 180 0
-181 -216 -186 -146 0
-181 -216 -186 -176 0
-181 -216 -146 -176 0
-181 -186 -146 -176 0
-182 -217 -187 -147 0
-182 -217 -187 -177 0
-182 -217 -147 -177 0
-182 -187 -147 -177 0
-183 -218 -188 -148 0
-183 -218 -188 -178 0
-183 -218 -148 -178 0
-183 -188 -148 -178 0
-184 -219 -189 -149 0
-184 -219 -189 -179 0
-184 -219 -149 -179 0
-184 -189 -149 -179 0
-185 -220 -190 -150 0
-185 -220 -190 -180 0
-185 -220 -150 -180 0
-185 -190 -150 -180 0
-300 -301 0
-186 -187 0
-188 -189 0
-188 -190 0
-189 -190 0
-300 186 187 0
-301 187 188 189 190 0
300 -186 0
300 -187 0
301 -188 0
301 -189 0
301 -190 0
-186 221 191 151 0
-186 221 191 181 0
-186 221 151 181 0
-186 191 151 181 0
-187 222 192 152 0
-187 222 192 182 0
-187 222 152 182 0
-187 192 152 182 0
-188 223 193 153 0
-188 223 193 183 0
-188 223 153 183 0
-188 193 153 183 0
-189 224 194 154 0
-189 224 194 184 0
-189 224 154 184 0
-189 194 154 184 0
-190 225 195 155 0
-190 225 195 185 0
-190 225 155 185 0
-190 195 155 185 0
-186 -221 -191 -151 0
-186 -221 -191 -181 0
-186 -221 -151 -181 0
-186 -191 -151 -181 0
-187 -222 -192 -152 0
-187 -222 -192 -182 0
-187 -222 -152 -182 0
-187 -192 -152 -182 0
-188 -223 -193 -153 0
-188 -223 -193 -183 0
-188 -223 -153 -183 0
-188 -193 -153 -183 0
-189 -224 -194 -154 0
-189 -224 -194 -184 0
-189 -224 -154 -184 0
-189 -194 -154 -184 0
-190 -225 -195 -155 0
-190 -225 -195 -185 0
-190 -225 -155 -185 0
-190 -195 -155 -185 0
-302 -303 0
-191 -192 0
-193 -194 0
-193 -195 0
-194 -195 0
-302 191 192 0
-303 192 193 194 195 0
302 -191 0
302 -192 0
303 -193 0
303 -194 0
303 -195 0
-191 226 196 156 0
-191 226 196 186 0
-191 226 156 186 0
-191 196 156 186 0
-192 227 197 157 0
-192 227 197 187 0
-192 227 157 187 0
-192 197 157 187 0
-193 228 198 158 0
-193 228 198 188 0
-193 228 158 188 0
-193 198 158 188 0
-194 229 199 159 0
-194 229 199 189 0
-194 229 159 189 0
-194 199 159 189 0
-195 230 200 160 0
-195 230 200 190 0
-195 230 160 190 0
-195 200 160 190 0
-191 -226 -196 -156 0
-191 -226 -196 -186 0
-191 -226 -156 -186 0
-191 -196 -156 -186 0
-192 -227 -197 -157 0
-192 -227 -197 -187 0
-192 -227 -157 -187 0
-192 -197 -157 -187 0
-193 -228 -198 -158 0
-193 -228 -198 -188 0
-193 -228 -158 -188 0
-193 -198 -158 -188 0
-194 -229 -199 -159 0
-194 -229 -199 -189 0
-194 -229 -159 -189 0
-194 -199 -159 -189 0
-195 -230 -200 -160 0
-195 -230 -200 -190 0
-195 -230 -160 -190 0
-195 -200 -160 -190 0
-304 -305 0
-196 -197 0
-198 -199 0
-198 -200 0
-199 -200 0
-304 196 197 0
-305 197 198 199 200 0
304 -196 0
304 -197 0
305 -198 0
305 -199 0
305 -200 0
-196 231 201 161 0
-196 231 201 191 0
-196 231 161 191 0
-196 201 161 191 0
-197 232 202 162 0
-197 232 202 192 0
-197 232 162 192 0
-197 202 162 192 0
-198 233 203 163 0
-198 233 203 193 0
-198 233 163 193 0
-198 203 163 193 0
-199 234 204 164 0
-199 234 204 194 0
-199 234 164 194 0
-199 204 164 194 0
-200 235 205 165 0
-200 235 205 195 0
-200 235 165 195 0
-200 205 165 195 0
-196 -231 -201 -161 0
-196 -231 -201 -191 0
-196 -231 -161 -191 0
-196 -201 -161 -191 0
-197 -232 -202 -162 0
-197 -232 -202 -192 0
-197 -232 -162 -192 0
-197 -202 -162 -192 0
-198 -233 -203 -163 0
-198 -233 -203 -193 0
-198 -233 -163 -193 0
-198 -203 -163 -193 0
-199 -234 -204 -164 0
-199 -234 -204 -194 0
-199 -234 -164 -194 0
-199 -204 -164 -194 0
-200 -235 -205 -165 0
-200 -235 -205 -195 0
-200 -235 -165 -195 0
-200 -205 -165 -195 0
-306 -307 0
-201 -202 0
-203 -204 0
-203 -205 0
-204 -205 0
-306 201 202 0
-307 202 203 204 205 0
306 -201 0
306 -202 0
307 -203 0
307 -204 0
307 -205 0
-201 236 206 166 0
-201 236 206 196 0
-201 236 166 196 0
-201 206 166 196 0
-202 237 207 167 0
-202 237 207 197 0
-202 237 167 197 0
-202 207 167 197 0
-203 238 208 168 0
-203 238 208 198 0
-203 238 168 198 0
-203 208 168 198 0
-204 239 209 169 0
-204 239 209 199 0
-204 239 169 199 0
-204 209 169 199 0
-205 240 210 170 0
-205 240 210 200 0
-205 240 170 200 0
-205 210 170 200 0
-201 -236 -206 -166 0
-201 -236 -206 -196 0
-201 -236 -166 -196 0
-201 -206 -166 -196 0
-202 -237 -207 -167 0
-202 -237 -207 -197 0
-202 -237 -167 -197 0
-202 -207 -167 -197 0
-203 -238 -208 -168 0
-203 -238 -208 -198 0
-203 -238 -168 -198 0
-203 -208 -168 -198 0
-204 -239 -209 -169 0
-204 -239 -209 -199 0
-204 -239 -169 -199 0
-204 -209 -169 -199 0
-205 -240 -210 -170 0
-205 -240 -210 -200 0
-205 -240 -170 -200 0
-205 -210 -170 -200 0
-308 -309 0
-206 -207 0
-208 -209 0
-208 -210 0
-209 -210 0
-308 206 207 0
-309 207 208 209 210 0
308 -206 0
308 -207 0
309 -208 0
309 -209 0
309 -210 0
-206 241 201 0
-206 241 171 0
-206 201 171 0
-207 242 202 0
-207 242 172 0
-207 202 172 0
-208 243 203 0
-208 243 173 0
-208 203 173 0
-209 244 204 0
-209 244 174 0
-209 204 174 0
-210 245 205 0
-210 245 175 0
-210 205 175 0
-206 -241 -201 -171 0
-207 -242 -202 -172 0
-208 -243 -203 -173 0
-209 -244 -204 -174 0
-210 -245 -205 -175 0
-310 -311 0
-211 -212 0
-213 -214 0
-213 -215 0
-214 -215 0
-310 211 212 0
-311 212 213 214 215 0
310 -211 0
310 -212 0
311 -213 0
311 -214 0
311 -215 0
-211 176 0
-211 216 0
-212 177 0
-212 217 0
-213 178 0
-213 218 0
-214 179 0
-214 219 0
-215 180 0
-215 220 0
-312 -313 0
-216 -217 0
-218 -219 0
-218 -220 0
-219 -220 0
-312 216 217 0
-313 217 218 219 220 0
312 -216 0
312 -217 0
313 -218 0
313 -219 0
313 -220 0
-216 181 221 0
-216 181 211 0
-216 221 211 0
-217 182 222 0
-217 182 212 0
-217 222 212 0
-218 183 223 0
-218 183 213 0
-218 223 213 0
-219 184 224 0
-219 184 214 0
-219 224 214 0
-220 185 225 0
-220 185 215 0
-220 225 215 0
-216 -181 -221 -211 0
-217 -182 -222 -212 0
-218 -183 -223 -213 0
-219 -184 -224 -214 0
-220 -185 -225 -215 0
-314 -315 0
-221 -222 0
-223 -224 0
-223 -225 0
-224 -225 0
-314 221 222 0
-315 222 223 224 225 0
314 -221 0
314 -222 0
315 -223 0
315 -224 0
315 -225 0
-221 186 226 0
-221 186 216 0
-221 226 216 0
-222 187 227 0
-222 187 217 0
-222 227 217 0
-223 188 228 0
-223 188 218 0
-223 228 218 0
-224 189 229 0
-224 189 219 0
-224 229 219 0
-225 190 230 0
-225 190 220 0
-225 230 220 0
-221 -186 -226 -216 0
-222 -187 -227 -217 0
-223 -188 -228 -218 0
-224 -189 -229 -219 0
-225 -190 -230 -220 0
-316 -317 0
-226 -227 0
-228 -229 0
-228 -230 0
-229 -230 0
-316 226 227 0
-317 227 228 229 230 0
316 -226 0
316 -227 0
317 -228 0
317 -229 0
317 -230 0
-226 191 231 0
-226 191 221 0
-226 231 221 0
-227 192 232 0
-227 192 222 0
-227 232 222 0
-228 193 233 0
-228 193 223 0
-228 233 223 0
-229 194 234 0
-229 194 224 0
-229 234 224 0
-230 195 235 0
-230 195 225 0
-230 235 225 0
-226 -191 -231 -221 0
-227 -192 -232 -222 0
-228 -193 -233 -223 0
-229 -194 -234 -224 0
-230 -195 -235 -225 0
-318 -319 0
-231 -232 0
-233 -234 0
-233 -235 0
-234 -235 0
-318 231 232 0
-319 232 233 234 235 0
318 -231 0
318 -232 0
319 -233 0
319 -234 0
319 -235 0
-231 196 236 0
-231 196 226 0
-231 236 226 0
-232 197 237 0
-232 197 227 0
-232 237 227 0
-233 198 238 0
-233 198 228 0
-233 238 228 0
-234 199 239 0
-234 199 229 0
-234 239 229 0
-235 200 240 0
-235 200 230 0
-235 240 230 0
-231 -196 -236 -226 0
-232 -197 -237 -227 0
-233 -198 -238 -228 0
-234 -199 -239 -229 0
-235 -200 -240 -230 0
-320 -321 0
-236 -237 0
-238 -239 0
-238 -240 0
-239 -240 0
-320 236 237 0
-321 237 238 239 240 0
320 -236 0
320 -237 0
321 -238 0
321 -239 0
321 -240 0
-236 201 241 0
-236 201 231 0
-236 241 231 0
-237 202 242 0
-237 202 232 0
-237 242 232 0
-238 203 243 0
-238 203 233 0
-238 243 233 0
-239 204 244 0
-239 204 234 0
-239 244 234 0
-240 205 245 0
-240 205 235 0
-240 245 235 0
-236 -201 -241 -231 0
-237 -202 -242 -232 0
-238 -203 -243 -233 0
-239 -204 -244 -234 0
-240 -205 -245 -235 0
-322 -323 0
-241 -242 0
-243 -244 0
-243 -245 0
-244 -245 0
-322 241 242 0
-323 242 243 244 245 0
322 -241 0
322 -242 0
323 -243 0
323 -244 0
323 -245 0
-241 206 0
-241 236 0
-242 207 0
-242 237 0
-243 208 0
-243 238 0
-244 209 0
-244 239 0
-245 210 0
-245 240 0